c Lingeling SAT Solver
c 
c Version azf 92032848c138b2f33629ad24394d60a3787a1046
c 
c Copyright (C) 2010-2014 Armin Biere JKU Linz Austria.
c All rights reserved.
c 
c released Don Mai 22 22:08:00 CEST 2014
c compiled Mon Oct  6 05:55:43 PDT 2014
c 
c gcc (Ubuntu 4.8.2-19ubuntu1) 4.8.2
c -Wall -O3 -DNDBLSCR -DNLGLOG -DNDEBUG -DNCHKSOL -DNLGLPICOSAT -DNLGLDRUPLIG
c -DNLGLYALSAT
c Linux ubuntu 3.13.0-32-generic x86_64
c 
c reading input file benchmark-sat/translations/gc-inithx.i.3-17.cnf
c no embedded options
c found 'p cnf 10557 322550' header
c read 10557 variables, 322550 clauses, 654415 literals in 0.00 seconds
c 
c  seconds         irredundant          redundant clauses agility   height
c          variables clauses conflicts large ternary binary    glue         MB
c 
c S    0.0   10557   322550         0       0      0     0   0  0.0   0.0    9
c P    1.0    8990   237519      1000     921      0 67816   2 19.5 1846.3   10
c P    2.0    8990   237519      1000     921      0 67816   2 19.5 1846.3   10
c P    5.0    8990   237519      1000     921      0 67816   2 19.5 1846.3   13
c S   10.0    8989   237518     29485    6408      0 67800   1 32.1 308.3   13
c S   20.0    8989   237518    115416   16855      0 67800   1 36.5 145.7   20
c S   30.0    8989   237518    195865   19594      0 67800   1 38.6 118.5   28
c S   40.0    8989   237518    280754   18719      0 67800   1 41.8 108.9   20
c S   50.0    8975   237504    343486   28876      0 67576   1 41.4 101.9   27
c S   60.0    8975   237504    418791   22628      0 67576   1 42.1  96.9   30
c S  120.0    8975   237504    875353   41281      0 67576   1 42.4  86.0   42
c P  180.0    8975   237473   1316625   46074      0 67080   1 46.3  83.2   29
c S  240.0    8944   237473   1696946   69280      0 67080   1 45.3  80.5   57
c S  300.0    8944   237473   2091556   57467      0 67080   1 45.0  79.5   58
c S  600.0    8944   237473   4232555   73586      0 67080   1 50.1  80.3   76
c S  900.0    8944   237473   6677027   98531      0 67080   1 51.4  80.3  101
